Clp0006I 0  Obj 0 Primal inf 1999.9998 (2000) Dual inf 27494407 (1000000)
Clp0006I 200  Obj -22063991 Primal inf 1607870 (2000)
Clp0006I 400  Obj -16567554 Primal inf 1213591 (2000)
Clp0006I 600  Obj -11086776 Primal inf 820399 (2000)
Clp0006I 800  Obj -5604515 Primal inf 431683 (2000)
Clp0006I 1000  Obj -127591 Primal inf 67176 (1998)
Clp0006I 1200  Obj -52780 Primal inf 56077 (1995)
Clp0006I 1313  Obj -51400 Primal inf 61738 (1995)
Clp0006I 1417  Obj -51400 Primal inf 68024 (1993)
Clp0006I 1541  Obj -51400 Primal inf 84044 (1992)
Clp0006I 1674  Obj -51400 Primal inf 267235 (1991)
Clp0006I 1780  Obj -51400 Primal inf 264927 (1994)
Clp0006I 1892  Obj -51400 Primal inf 252244 (1995)
Clp0006I 2031  Obj -51400 Primal inf 262138 (1993)
Clp0006I 2171  Obj -51400 Primal inf 263967 (1994)
Clp0006I 2312  Obj -51400 Primal inf 285581 (1993)
Clp0006I 2447  Obj -51400 Primal inf 323357 (1988)
Clp0006I 2596  Obj -51400 Primal inf 233535 (1987)
Clp0006I 2757  Obj -51400 Primal inf 312615 (1983)
Clp0006I 2898  Obj -51400 Primal inf 290252 (1984)
Clp0006I 3049  Obj -51400 Primal inf 259363 (1982)
Clp0006I 3194  Obj -51400 Primal inf 222881 (1987)
Clp0006I 3340  Obj -51400 Primal inf 264292 (1987)
Clp0006I 3480  Obj -51400 Primal inf 199805 (1987)
Clp0006I 3645  Obj -51400 Primal inf 200478 (1985)
Clp0006I 3789  Obj -51400 Primal inf 231963 (1985)
Clp0006I 3942  Obj -51400 Primal inf 234236 (1982)
Clp0006I 4112  Obj -51400 Primal inf 255432 (1982)
Clp0006I 4266  Obj -51400 Primal inf 243617 (1982)
Clp0006I 4415  Obj -51400 Primal inf 370511 (1985)
Clp0006I 4565  Obj -51400 Primal inf 302902 (1986)
Clp0006I 4724  Obj -51400 Primal inf 242615 (1983)
Clp0006I 4881  Obj -51400 Primal inf 316531 (1983)
Clp0006I 5050  Obj -51400 Primal inf 271746 (1983)
Clp0006I 5209  Obj -51400 Primal inf 245550 (1982)
Clp0006I 5379  Obj -51400 Primal inf 319971 (1986)
Clp0006I 5522  Obj -51400 Primal inf 307973 (1990)
Clp0006I 5674  Obj -51400 Primal inf 305932 (1991)
Clp0006I 5812  Obj -51400 Primal inf 302411 (1988)
Clp0006I 5956  Obj -51400 Primal inf 387750 (1989)
Clp0006I 6084  Obj -51400 Primal inf 240025 (1990)
Clp0006I 6231  Obj -51400 Primal inf 201267 (1991)
Clp0006I 6399  Obj -51400 Primal inf 222926 (1990)
Clp0006I 6552  Obj -51400 Primal inf 251786 (1992)
Clp0006I 6692  Obj -51400 Primal inf 233341 (1992)
Clp0006I 6844  Obj -51400 Primal inf 247780 (1989)
Clp0006I 7004  Obj -51400 Primal inf 250490 (1990)
Clp0006I 7158  Obj -51400 Primal inf 237554 (1989)
Clp0006I 7307  Obj -51400 Primal inf 283649 (1989)

TIME LIMIT REACHED!
real 1m24,224s user 1m23,607s sys 0m0,519s
